63
25
1 2 3 4 5 
6 7 8 9 10 11 12 13 
1 14 15 16 17 18 
6 19 20 21 22 
23 24 25 26 
23 27 28 29 
19 30 31 32 
33 34 35 36 
2 7 24 37 38 39 40 41 42 
8 14 20 43 44 
21 27 43 45 
3 33 37 45 46 
4 9 15 47 
10 48 49 
5 16 34 38 48 
30 50 51 52 53 
31 35 44 47 
28 39 50 54 55 56 
40 54 57 58 59 
22 41 55 57 60 61 62 
17 29 58 
11 25 32 51 60 63 
12 42 56 61 
46 52 62 
13 18 26 36 49 53 59 63 
